NAME          
ROWS
 N  OBJ
 L  c1
 L  c2
 L  c3
 L  c4
 L  c5
COLUMNS
    MARKER    'MARKER'                 'INTORG'
    x[1]      c1        272
    x[1]      c2        76
    x[1]      c3        629
    x[1]      c4        278
    x[1]      c5        631
    x[1]      OBJ       -650
    x[2]      c1        290
    x[2]      c2        310
    x[2]      c3        166
    x[2]      c4        287
    x[2]      c5        2
    x[2]      OBJ       -685
    x[3]      c1        611
    x[3]      c2        919
    x[3]      c3        493
    x[3]      c4        857
    x[3]      c5        20
    x[3]      OBJ       -986
    x[4]      c1        748
    x[4]      c2        116
    x[4]      c3        988
    x[4]      c4        912
    x[4]      c5        167
    x[4]      OBJ       -299
    x[5]      c1        686
    x[5]      c2        276
    x[5]      c3        605
    x[5]      c4        81
    x[5]      c5        717
    x[5]      OBJ       -135
    x[6]      c1        667
    x[6]      c2        782
    x[6]      c3        506
    x[6]      c4        945
    x[6]      c5        242
    x[6]      OBJ       -163
    x[7]      c1        78
    x[7]      c2        68
    x[7]      c3        483
    x[7]      c4        940
    x[7]      c5        583
    x[7]      OBJ       -854
    x[8]      c1        213
    x[8]      c2        795
    x[8]      c3        204
    x[8]      c4        646
    x[8]      c5        987
    x[8]      OBJ       -476
    x[9]      c1        383
    x[9]      c2        676
    x[9]      c3        726
    x[9]      c4        96
    x[9]      c5        843
    x[9]      OBJ       -981
    x[10]     c1        730
    x[10]     c2        341
    x[10]     c3        344
    x[10]     c4        242
    x[10]     c5        914
    x[10]     OBJ       -270
    x[11]     c1        670
    x[11]     c2        958
    x[11]     c3        510
    x[11]     c4        825
    x[11]     c5        479
    x[11]     OBJ       -171
    x[12]     c1        566
    x[12]     c2        388
    x[12]     c3        199
    x[12]     c4        692
    x[12]     c5        937
    x[12]     OBJ       -505
    x[13]     c1        953
    x[13]     c2        490
    x[13]     c3        931
    x[13]     c4        361
    x[13]     c5        293
    x[13]     OBJ       -608
    x[14]     c1        902
    x[14]     c2        903
    x[14]     c3        259
    x[14]     c4        149
    x[14]     c5        570
    x[14]     OBJ       -643
    x[15]     c1        192
    x[15]     c2        368
    x[15]     c3        591
    x[15]     c4        942
    x[15]     c5        943
    x[15]     OBJ       -51
    x[16]     c1        853
    x[16]     c2        449
    x[16]     c3        382
    x[16]     c4        935
    x[16]     c5        15
    x[16]     OBJ       -512
    x[17]     c1        297
    x[17]     c2        844
    x[17]     c3        859
    x[17]     c4        300
    x[17]     c5        170
    x[17]     OBJ       -420
    x[18]     c1        837
    x[18]     c2        335
    x[18]     c3        306
    x[18]     c4        577
    x[18]     c5        963
    x[18]     OBJ       -994
    x[19]     c1        295
    x[19]     c2        371
    x[19]     c3        958
    x[19]     c4        884
    x[19]     c5        412
    x[19]     OBJ       -683
    x[20]     c1        530
    x[20]     c2        613
    x[20]     c3        525
    x[20]     c4        938
    x[20]     c5        196
    x[20]     OBJ       -488
    x[21]     c1        161
    x[21]     c2        982
    x[21]     c3        173
    x[21]     c4        366
    x[21]     c5        784
    x[21]     OBJ       -158
    x[22]     c1        622
    x[22]     c2        377
    x[22]     c3        962
    x[22]     c4        990
    x[22]     c5        705
    x[22]     OBJ       -830
    x[23]     c1        601
    x[23]     c2        875
    x[23]     c3        183
    x[23]     c4        471
    x[23]     c5        162
    x[23]     OBJ       -829
    x[24]     c1        885
    x[24]     c2        643
    x[24]     c3        770
    x[24]     c4        342
    x[24]     c5        982
    x[24]     OBJ       -95
    x[25]     c1        104
    x[25]     c2        809
    x[25]     c3        650
    x[25]     c4        363
    x[25]     c5        762
    x[25]     OBJ       -556
    x[26]     c1        147
    x[26]     c2        935
    x[26]     c3        811
    x[26]     c4        885
    x[26]     c5        892
    x[26]     OBJ       -610
    x[27]     c1        596
    x[27]     c2        756
    x[27]     c3        128
    x[27]     c4        636
    x[27]     c5        358
    x[27]     OBJ       -630
    x[28]     c1        971
    x[28]     c2        549
    x[28]     c3        944
    x[28]     c4        473
    x[28]     c5        171
    x[28]     OBJ       -302
    x[29]     c1        484
    x[29]     c2        693
    x[29]     c3        188
    x[29]     c4        866
    x[29]     c5        235
    x[29]     OBJ       -652
    x[30]     c1        917
    x[30]     c2        377
    x[30]     c3        382
    x[30]     c4        917
    x[30]     c5        467
    x[30]     OBJ       -252
    x[31]     c1        134
    x[31]     c2        467
    x[31]     c3        544
    x[31]     c4        531
    x[31]     c5        338
    x[31]     OBJ       -318
    x[32]     c1        421
    x[32]     c2        739
    x[32]     c3        977
    x[32]     c4        57
    x[32]     c5        553
    x[32]     OBJ       -331
    x[33]     c1        183
    x[33]     c2        665
    x[33]     c3        184
    x[33]     c4        935
    x[33]     c5        301
    x[33]     OBJ       -492
    x[34]     c1        374
    x[34]     c2        858
    x[34]     c3        673
    x[34]     c4        493
    x[34]     c5        481
    x[34]     OBJ       -35
    x[35]     c1        347
    x[35]     c2        342
    x[35]     c3        756
    x[35]     c4        990
    x[35]     c5        905
    x[35]     OBJ       -405
    x[36]     c1        818
    x[36]     c2        846
    x[36]     c3        241
    x[36]     c4        688
    x[36]     c5        871
    x[36]     OBJ       -845
    x[37]     c1        556
    x[37]     c2        241
    x[37]     c3        299
    x[37]     c4        916
    x[37]     c5        541
    x[37]     OBJ       -134
    x[38]     c1        505
    x[38]     c2        591
    x[38]     c3        159
    x[38]     c4        387
    x[38]     c5        675
    x[38]     OBJ       -303
    x[39]     c1        321
    x[39]     c2        105
    x[39]     c3        788
    x[39]     c4        65
    x[39]     c5        111
    x[39]     OBJ       -829
    x[40]     c1        218
    x[40]     c2        625
    x[40]     c3        569
    x[40]     c4        549
    x[40]     c5        87
    x[40]     OBJ       -87
    x[41]     c1        723
    x[41]     c2        692
    x[41]     c3        408
    x[41]     c4        918
    x[41]     c5        126
    x[41]     OBJ       -838
    x[42]     c1        22
    x[42]     c2        61
    x[42]     c3        866
    x[42]     c4        1000
    x[42]     c5        476
    x[42]     OBJ       -533
    x[43]     c1        859
    x[43]     c2        154
    x[43]     c3        880
    x[43]     c4        672
    x[43]     c5        695
    x[43]     OBJ       -321
    x[44]     c1        724
    x[44]     c2        107
    x[44]     c3        760
    x[44]     c4        142
    x[44]     c5        34
    x[44]     OBJ       -816
    x[45]     c1        85
    x[45]     c2        12
    x[45]     c3        442
    x[45]     c4        412
    x[45]     c5        990
    x[45]     OBJ       -712
    x[46]     c1        253
    x[46]     c2        691
    x[46]     c3        64
    x[46]     c4        213
    x[46]     c5        183
    x[46]     OBJ       -437
    x[47]     c1        263
    x[47]     c2        396
    x[47]     c3        353
    x[47]     c4        327
    x[47]     c5        120
    x[47]     OBJ       -557
    x[48]     c1        620
    x[48]     c2        965
    x[48]     c3        497
    x[48]     c4        335
    x[48]     c5        124
    x[48]     OBJ       -106
    x[49]     c1        816
    x[49]     c2        353
    x[49]     c3        694
    x[49]     c4        338
    x[49]     c5        828
    x[49]     OBJ       -623
    x[50]     c1        700
    x[50]     c2        305
    x[50]     c3        131
    x[50]     c4        276
    x[50]     c5        763
    x[50]     OBJ       -440
RHS
    rhs       c1        12602
    rhs       c2        13144
    rhs       c3        13070
    rhs       c4        14220
    rhs       c5        12402
RANGES
BOUNDS
 BV bounds    x[1]
 BV bounds    x[2]
 BV bounds    x[3]
 BV bounds    x[4]
 BV bounds    x[5]
 BV bounds    x[6]
 BV bounds    x[7]
 BV bounds    x[8]
 BV bounds    x[9]
 BV bounds    x[10]
 BV bounds    x[11]
 BV bounds    x[12]
 BV bounds    x[13]
 BV bounds    x[14]
 BV bounds    x[15]
 BV bounds    x[16]
 BV bounds    x[17]
 BV bounds    x[18]
 BV bounds    x[19]
 BV bounds    x[20]
 BV bounds    x[21]
 BV bounds    x[22]
 BV bounds    x[23]
 BV bounds    x[24]
 BV bounds    x[25]
 BV bounds    x[26]
 BV bounds    x[27]
 BV bounds    x[28]
 BV bounds    x[29]
 BV bounds    x[30]
 BV bounds    x[31]
 BV bounds    x[32]
 BV bounds    x[33]
 BV bounds    x[34]
 BV bounds    x[35]
 BV bounds    x[36]
 BV bounds    x[37]
 BV bounds    x[38]
 BV bounds    x[39]
 BV bounds    x[40]
 BV bounds    x[41]
 BV bounds    x[42]
 BV bounds    x[43]
 BV bounds    x[44]
 BV bounds    x[45]
 BV bounds    x[46]
 BV bounds    x[47]
 BV bounds    x[48]
 BV bounds    x[49]
 BV bounds    x[50]
ENDATA
